* ENCODING=ISO-8859-1
NAME          CPLEX
ROWS
 N  obj1    
 G  c1      
 G  c2      
 G  c3      
 G  c4      
 G  c5      
 G  c6      
 G  c7      
 G  c8      
 G  c9      
 G  c10     
 G  c11     
 G  c12     
 G  c13     
 G  c14     
 G  c15     
 G  c16     
 G  c17     
 G  c18     
 G  c19     
 G  c20     
 G  c21     
 G  c22     
 G  c23     
 G  c24     
 G  c25     
COLUMNS
    MARK0000  'MARKER'                 'INTORG'
    x1        obj1                            1
    x1        c3                            381
    x1        c7                            688
    x1        c11                           454
    x2        obj1                            1
    x2        c2                            110
    x2        c11                           626
    x3        obj1                            1
    x3        c16                           987
    x4        obj1                            1
    x4        c5                            680
    x4        c8                            207
    x4        c24                           254
    x5        obj1                            1
    x5        c13                           738
    x6        obj1                            1
    x6        c3                            856
    x6        c4                            781
    x6        c9                            434
    x6        c11                           819
    x6        c19                           792
    x7        obj1                            1
    x7        c14                           900
    x7        c21                           621
    x7        c24                           351
    x8        obj1                            1
    x8        c5                            587
    x9        obj1                            1
    x10       obj1                            1
    x10       c12                           595
    x10       c25                           869
    x11       obj1                            1
    x11       c6                            317
    x11       c16                           554
    x12       obj1                            1
    x13       obj1                            1
    x13       c1                            431
    x13       c14                           795
    x13       c17                           825
    x13       c22                           879
    x13       c24                           355
    x14       obj1                            1
    x14       c16                           993
    x14       c18                           916
    x14       c23                           254
    x14       c25                           712
    x15       obj1                            1
    x15       c1                            374
    x15       c6                            791
    x15       c17                           388
    x15       c21                           623
    x16       obj1                            1
    x16       c2                            560
    x16       c12                           889
    x16       c13                           107
    x16       c21                           468
    x17       obj1                            1
    x17       c4                            802
    x17       c15                           824
    x18       obj1                            1
    x18       c1                            200
    x18       c4                            662
    x18       c15                           402
    x18       c19                           793
    x18       c25                           842
    x19       obj1                            1
    x19       c7                            903
    x19       c12                           277
    x19       c13                           361
    x20       obj1                            1
    x20       c2                            150
    x20       c12                           884
    x20       c17                           897
    x20       c25                           340
    x21       obj1                            1
    x21       c9                            260
    x21       c11                           773
    x21       c13                           191
    x22       obj1                            1
    x22       c15                           898
    x22       c21                           640
    x23       obj1                            1
    x23       c2                            369
    x23       c7                            811
    x23       c9                            511
    x23       c14                           182
    x24       obj1                            1
    x24       c5                            669
    x24       c9                            842
    x24       c10                           359
    x24       c24                           274
    x25       obj1                            1
    x25       c15                           845
    x26       obj1                            1
    x26       c10                           666
    x26       c22                           750
    x27       obj1                            1
    x27       c1                            792
    x27       c12                           215
    x27       c16                           893
    x27       c20                           225
    x27       c21                           276
    x27       c23                           514
    x28       obj1                            1
    x29       obj1                            1
    x29       c17                           451
    x29       c19                           706
    x29       c21                           334
    x30       obj1                            1
    x30       c11                           975
    x30       c22                           910
    x31       obj1                            1
    x31       c6                            581
    x31       c8                            449
    x31       c13                           159
    x31       c22                           266
    x32       obj1                            1
    x32       c9                            243
    x32       c11                           713
    x32       c12                           678
    x32       c18                           548
    x33       obj1                            1
    x33       c8                            627
    x33       c23                           940
    x33       c24                           264
    x34       obj1                            1
    x34       c1                            100
    x34       c2                            217
    x34       c5                            302
    x34       c8                            540
    x34       c17                           860
    x35       obj1                            1
    x35       c16                           487
    x36       obj1                            1
    x36       c12                           666
    x36       c16                           951
    x36       c22                           501
    x37       obj1                            1
    x37       c2                            702
    x37       c22                           756
    x38       obj1                            1
    x39       obj1                            1
    x39       c5                            160
    x39       c10                           245
    x39       c20                           750
    x40       obj1                            1
    x40       c2                            219
    x40       c3                            150
    x40       c14                           832
    x40       c19                           838
    x41       obj1                            1
    x41       c1                            102
    x41       c20                           792
    x42       obj1                            1
    x42       c6                            936
    x42       c13                           421
    x42       c14                           273
    x42       c15                           662
    x42       c22                           524
    x43       obj1                            1
    x43       c14                           968
    x43       c18                           488
    x43       c24                           319
    x43       c25                           930
    x44       obj1                            1
    x44       c3                            498
    x44       c4                            299
    x44       c13                           273
    x44       c17                           177
    x44       c19                           233
    x45       obj1                            1
    x45       c19                           530
    x46       obj1                            1
    x46       c4                            835
    x46       c7                            152
    x47       obj1                            1
    x47       c3                            662
    x47       c4                            456
    x47       c7                            561
    x47       c25                           864
    x48       obj1                            1
    x48       c3                            776
    x48       c5                            114
    x48       c7                            674
    x48       c15                           275
    x49       obj1                            1
    x49       c8                            597
    x49       c19                           434
    x50       obj1                            1
    MARK0001  'MARKER'                 'INTEND'
RHS
    rhs       c1                           1000
    rhs       c2                           1164
    rhs       c3                           1662
    rhs       c4                           1918
    rhs       c5                           1256
    rhs       c6                           1313
    rhs       c7                           1895
    rhs       c8                           1210
    rhs       c9                           1145
    rhs       c10                           635
    rhs       c11                          2180
    rhs       c12                          2102
    rhs       c13                          1125
    rhs       c14                          1975
    rhs       c15                          1953
    rhs       c16                          2433
    rhs       c17                          1799
    rhs       c18                           976
    rhs       c19                          2163
    rhs       c20                           884
    rhs       c21                          1481
    rhs       c22                          2293
    rhs       c23                           854
    rhs       c24                           909
    rhs       c25                          2279
BOUNDS
 LI bnd       x1        0
 LI bnd       x2        0
 LI bnd       x3        0
 LI bnd       x4        0
 LI bnd       x5        0
 LI bnd       x6        0
 LI bnd       x7        0
 LI bnd       x8        0
 LI bnd       x9        0
 LI bnd       x10       0
 LI bnd       x11       0
 LI bnd       x12       0
 LI bnd       x13       0
 LI bnd       x14       0
 LI bnd       x15       0
 LI bnd       x16       0
 LI bnd       x17       0
 LI bnd       x18       0
 LI bnd       x19       0
 LI bnd       x20       0
 LI bnd       x21       0
 LI bnd       x22       0
 LI bnd       x23       0
 LI bnd       x24       0
 LI bnd       x25       0
 LI bnd       x26       0
 LI bnd       x27       0
 LI bnd       x28       0
 LI bnd       x29       0
 LI bnd       x30       0
 LI bnd       x31       0
 LI bnd       x32       0
 LI bnd       x33       0
 LI bnd       x34       0
 LI bnd       x35       0
 LI bnd       x36       0
 LI bnd       x37       0
 LI bnd       x38       0
 LI bnd       x39       0
 LI bnd       x40       0
 LI bnd       x41       0
 LI bnd       x42       0
 LI bnd       x43       0
 LI bnd       x44       0
 LI bnd       x45       0
 LI bnd       x46       0
 LI bnd       x47       0
 LI bnd       x48       0
 LI bnd       x49       0
 LI bnd       x50       0
ENDATA
